239 300 228 245 225 206 221 241 225 213 234 211 225 208 223 242 246 221 250 245 226 207 248 223 232 218 241 204 243 221 242 218 216 219 212 241 250 233 205 249 221 240 210 246 248 233 238 217 228 237 212 229 218 209 226 225 201 216 203 218 211 246 236 228 239 248 243 213 205 249 211 226 212 246 221 209 228 233 226 206 245 212 235 212 246 235 237 222 200 215 214 211 210 200 213 223 222 206 236 201 204 222 227 216 217 223 250 220 205 250 200 224 237 209 237 206 244 248 202 244 212 217 229 247 242 243 220 213 223 230 240 227 201 216 217 244 213 241 213 244 214 213 217 200 222 203 232 215 226 234 233 238 200 211 209 242 228 203 230 200 233 219 201 209 209 243 202 248 207 215 241 222 202 207 247 224 236 228 213 211 237 246 223 237 231 232 203 234 235 207 208 243 200 235 201 234 227 228 231 209 243 221 231 245 203 201 243 239 204 205 224 241 225 247 201 205 229 229 213 238 210 222 230 210 206 205 219 207 233 250 216 225 246 221 244 249 248 210 211 201 215 